10J3M/DAT/10J3MUNL-18.dat
10 3
22.2777 22.2777
18.212 18.212
7.9203 7.9203
30.5091 30.5091
45.8951 45.8951
9.7425 9.7425
43.5358 43.5358
19.6899 19.6899
39.6573 39.6573
5.1301 5.1301
242.5698