10J3M/SOL/10J3MUNL-18.sol
solution status: optimal solution found
objective value:                     44.4671666666667
x#1#1                                               1 	(obj:0)
x#2#3                                               1 	(obj:0)
x#3#3                                               1 	(obj:0)
x#4#2                              0.0761244850822695 	(obj:0)
x#4#3                               0.923875514917729 	(obj:0)
x#5#1                                               1 	(obj:0)
x#6#2                                               1 	(obj:0)
x#7#3                                               1 	(obj:0)
x#8#1                               0.396252398921465 	(obj:0)
x#8#2                               0.603747601078534 	(obj:0)
x#9#3                                               1 	(obj:0)
x#10#2                                              1 	(obj:0)
z                                    44.4671666666667 	(obj:1)
